data;
set K:= K1 K2 K3 K4 K5 K6 K7 ;

set F:= F1 F2 ;

set Q:= Q1 Q2 ;

param T:= 45;
param V: 
	K1  K2  K3  K4  K5  K6  K7  :=
Q1	1   1   1   1   0   0   0   
Q2	0   0   0   0   1   1   1   
; # if resorce k is of type q

param TF:= 
K1 6
K2 6
K3 6
K4 6
K5 12
K6 12
K7 12
; # number of continuous time slots resource can fly

param TR:= 
K1 2
K2 2
K3 2
K4 2
K5 4
K6 4
K7 4
; #  number of continuous time slots resource k needs to rest between flights

param P:= 
K1 36
K2 36
K3 36
K4 36
K5 36
K6 36
K7 36
; #  number of continuous time slots a pilot can be present including rest times for resource k 

param N:= 
K1 4
K2 4
K3 4
K4 4
K5 2
K6 2
K7 2
; # max number of flights resource k can fly in the total time period

param A: 
	K1  K2  K3  K4  K5  K6  K7  :=
1	1   1   1   1   1   1   1   
2	1   1   1   1   1   1   1   
3	1   1   1   1   1   1   1   
4	1   1   1   1   1   1   1   
5	1   1   1   1   1   1   1   
6	1   1   1   1   1   1   1   
7	1   1   1   1   1   1   1   
8	1   1   1   1   1   1   1   
9	1   1   1   1   1   1   1   
10	1   1   1   1   1   1   1   
11	1   1   1   1   1   1   1   
12	1   1   1   1   1   1   1   
13	1   1   1   1   1   1   1   
14	1   1   1   1   1   1   1   
15	1   1   1   1   1   1   1   
16	1   1   1   1   1   1   1   
17	1   1   1   1   1   1   1   
18	1   1   1   1   1   1   1   
19	1   1   1   1   1   1   1   
20	1   1   1   1   1   1   1   
21	1   1   1   1   1   1   1   
22	1   1   1   1   1   1   1   
23	1   1   1   1   1   1   1   
24	1   1   1   1   1   1   1   
25	1   1   1   1   1   1   1   
26	1   1   1   1   1   1   1   
27	1   1   1   1   1   1   1   
28	1   1   1   1   1   1   1   
29	1   1   1   1   1   1   1   
30	1   1   1   1   1   1   1   
31	1   1   1   1   1   1   1   
32	1   1   1   1   1   1   1   
33	1   1   1   1   1   1   1   
34	1   1   1   1   1   1   1   
35	1   1   1   1   1   1   1   
36	1   1   1   1   1   1   1   
37	1   1   1   1   1   1   1   
38	1   1   1   1   1   1   1   
39	1   1   1   1   1   1   1   
40	1   1   1   1   1   1   1   
41	1   1   1   1   1   1   1   
42	1   1   1   1   1   1   1   
43	1   1   1   1   1   1   1   
44	1   1   1   1   1   1   1   
45	1   1   1   1   1   1   1   
; # availability of resorce k in time slot t

param B: 
	F1  F2  :=
Q1	0   0   
Q2	0   0   
; # if front f requires resources of type q

param U: 
	F1  F2  :=
K1	0   0   
K2	0   0   
K3	0   0   
K4	0   0   
K5	2   2   
K6	2   2   
K7	0   0   
; # transit time of resource

param C:= 
K1 900
K2 900
K3 1500
K4 4500
K5 5500
K6 5500
K7 5500
; #  water capacity of resource k

param S:= 
F1 10
F2 8
; # max number of resources that can fly at front f in the same time slot

param D:= 

[*,*,F1 ]:  K1    K2    K3    K4    K5    K6    K7    :=
1           1.67  1.67  1.67  1.33  1.00  1.00  1.00  
2           1.67  1.67  1.67  1.33  1.00  1.00  1.00  
3           1.67  1.67  1.67  1.33  1.00  1.00  1.00  
4           1.67  1.67  1.67  1.33  1.00  1.00  1.00  
5           1.67  1.67  1.67  1.33  1.00  1.00  1.00  
6           1.67  1.67  1.67  1.33  1.00  1.00  1.00  
7           1.67  1.67  1.67  1.33  1.00  1.00  1.00  
8           1.67  1.67  1.67  1.33  1.00  1.00  1.00  
9           1.67  1.67  1.67  1.33  1.00  1.00  1.00  
10          1.67  1.67  1.67  1.33  1.00  1.00  1.00  
11          1.67  1.67  1.67  1.33  1.00  1.00  1.00  
12          1.67  1.67  1.67  1.33  1.00  1.00  1.00  
13          1.67  1.67  1.67  1.33  1.00  1.00  1.00  
14          1.67  1.67  1.67  1.33  1.00  1.00  1.00  
15          1.67  1.67  1.67  1.33  1.00  1.00  1.00  
16          1.67  1.67  1.67  1.33  1.00  1.00  1.00  
17          1.67  1.67  1.67  1.33  1.00  1.00  1.00  
18          1.67  1.67  1.67  1.33  1.00  1.00  1.00  
19          1.67  1.67  1.67  1.33  1.00  1.00  1.00  
20          1.67  1.67  1.67  1.33  1.00  1.00  1.00  
21          1.67  1.67  1.67  1.33  1.00  1.00  1.00  
22          1.67  1.67  1.67  1.33  1.00  1.00  1.00  
23          1.67  1.67  1.67  1.33  1.00  1.00  1.00  
24          1.67  1.67  1.67  1.33  1.00  1.00  1.00  
25          1.59  1.59  1.59  1.26  0.95  0.95  0.95  
26          1.59  1.59  1.59  1.26  0.95  0.95  0.95  
27          1.59  1.59  1.59  1.26  0.95  0.95  0.95  
28          1.59  1.59  1.59  1.26  0.95  0.95  0.95  
29          1.59  1.59  1.59  1.26  0.95  0.95  0.95  
30          1.59  1.59  1.59  1.26  0.95  0.95  0.95  
31          1.59  1.59  1.59  1.26  0.95  0.95  0.95  
32          1.59  1.59  1.59  1.26  0.95  0.95  0.95  
33          1.59  1.59  1.59  1.26  0.95  0.95  0.95  
34          1.67  1.67  1.67  1.33  1.00  1.00  1.00  
35          1.67  1.67  1.67  1.33  1.00  1.00  1.00  
36          1.67  1.67  1.67  1.33  1.00  1.00  1.00  
37          1.67  1.67  1.67  1.33  1.00  1.00  1.00  
38          1.67  1.67  1.67  1.33  1.00  1.00  1.00  
39          1.67  1.67  1.67  1.33  1.00  1.00  1.00  
40          1.67  1.67  1.67  1.33  1.00  1.00  1.00  
41          1.67  1.67  1.67  1.33  1.00  1.00  1.00  
42          1.67  1.67  1.67  1.33  1.00  1.00  1.00  
43          1.67  1.67  1.67  1.33  1.00  1.00  1.00  
44          1.67  1.67  1.67  1.33  1.00  1.00  1.00  
45          1.67  1.67  1.67  1.33  1.00  1.00  1.00  

[*,*,F2 ]:  K1    K2    K3    K4    K5    K6    K7    :=
1           1.52  1.52  1.52  1.21  0.91  0.91  0.91  
2           1.52  1.52  1.52  1.21  0.91  0.91  0.91  
3           1.52  1.52  1.52  1.21  0.91  0.91  0.91  
4           1.52  1.52  1.52  1.21  0.91  0.91  0.91  
5           1.52  1.52  1.52  1.21  0.91  0.91  0.91  
6           1.52  1.52  1.52  1.21  0.91  0.91  0.91  
7           1.52  1.52  1.52  1.21  0.91  0.91  0.91  
8           1.52  1.52  1.52  1.21  0.91  0.91  0.91  
9           1.52  1.52  1.52  1.21  0.91  0.91  0.91  
10          1.52  1.52  1.52  1.21  0.91  0.91  0.91  
11          1.52  1.52  1.52  1.21  0.91  0.91  0.91  
12          1.52  1.52  1.52  1.21  0.91  0.91  0.91  
13          1.52  1.52  1.52  1.21  0.91  0.91  0.91  
14          1.52  1.52  1.52  1.21  0.91  0.91  0.91  
15          1.52  1.52  1.52  1.21  0.91  0.91  0.91  
16          1.52  1.52  1.52  1.21  0.91  0.91  0.91  
17          1.52  1.52  1.52  1.21  0.91  0.91  0.91  
18          1.52  1.52  1.52  1.21  0.91  0.91  0.91  
19          1.52  1.52  1.52  1.21  0.91  0.91  0.91  
20          1.52  1.52  1.52  1.21  0.91  0.91  0.91  
21          1.52  1.52  1.52  1.21  0.91  0.91  0.91  
22          1.52  1.52  1.52  1.21  0.91  0.91  0.91  
23          1.52  1.52  1.52  1.21  0.91  0.91  0.91  
24          1.52  1.52  1.52  1.21  0.91  0.91  0.91  
25          1.44  1.44  1.44  1.15  0.86  0.86  0.86  
26          1.44  1.44  1.44  1.15  0.86  0.86  0.86  
27          1.44  1.44  1.44  1.15  0.86  0.86  0.86  
28          1.44  1.44  1.44  1.15  0.86  0.86  0.86  
29          1.44  1.44  1.44  1.15  0.86  0.86  0.86  
30          1.44  1.44  1.44  1.15  0.86  0.86  0.86  
31          1.44  1.44  1.44  1.15  0.86  0.86  0.86  
32          1.44  1.44  1.44  1.15  0.86  0.86  0.86  
33          1.44  1.44  1.44  1.15  0.86  0.86  0.86  
34          1.52  1.52  1.52  1.21  0.91  0.91  0.91  
35          1.52  1.52  1.52  1.21  0.91  0.91  0.91  
36          1.52  1.52  1.52  1.21  0.91  0.91  0.91  
37          1.52  1.52  1.52  1.21  0.91  0.91  0.91  
38          1.52  1.52  1.52  1.21  0.91  0.91  0.91  
39          1.52  1.52  1.52  1.21  0.91  0.91  0.91  
40          1.52  1.52  1.52  1.21  0.91  0.91  0.91  
41          1.52  1.52  1.52  1.21  0.91  0.91  0.91  
42          1.52  1.52  1.52  1.21  0.91  0.91  0.91  
43          1.52  1.52  1.52  1.21  0.91  0.91  0.91  
44          1.52  1.52  1.52  1.21  0.91  0.91  0.91  
45          1.52  1.52  1.52  1.21  0.91  0.91  0.91  
; # downloads resource k can do at front f in time t if intermediate time slot

param E:= 

[*,*,F1 ]:  K1    K2    K3    K4    K5    K6    K7    :=
1           0.25  0.12  0.32  0.60  0.47  0.14  0.32  
2           0.25  0.12  0.32  0.60  0.47  0.14  0.32  
3           0.25  0.12  0.32  0.60  0.47  0.14  0.32  
4           0.25  0.12  0.32  0.60  0.47  0.14  0.32  
5           0.25  0.12  0.32  0.60  0.47  0.14  0.32  
6           0.25  0.12  0.32  0.60  0.47  0.14  0.32  
7           0.25  0.12  0.32  0.60  0.47  0.14  0.32  
8           0.25  0.12  0.32  0.60  0.47  0.14  0.32  
9           0.25  0.12  0.32  0.60  0.47  0.14  0.32  
10          0.25  0.12  0.32  0.60  0.47  0.14  0.32  
11          0.25  0.12  0.32  0.60  0.47  0.14  0.32  
12          0.25  0.12  0.32  0.60  0.47  0.14  0.32  
13          0.25  0.12  0.32  0.60  0.47  0.14  0.32  
14          0.25  0.12  0.32  0.60  0.47  0.14  0.32  
15          0.25  0.12  0.32  0.60  0.47  0.14  0.32  
16          0.25  0.12  0.32  0.60  0.47  0.14  0.32  
17          0.25  0.12  0.32  0.60  0.47  0.14  0.32  
18          0.25  0.12  0.32  0.60  0.47  0.14  0.32  
19          0.25  0.12  0.32  0.60  0.47  0.14  0.32  
20          0.25  0.12  0.32  0.60  0.47  0.14  0.32  
21          0.25  0.12  0.32  0.60  0.47  0.14  0.32  
22          0.25  0.12  0.32  0.60  0.47  0.14  0.32  
23          0.25  0.12  0.32  0.60  0.47  0.14  0.32  
24          0.25  0.12  0.32  0.60  0.47  0.14  0.32  
25          0.24  0.11  0.30  0.57  0.45  0.13  0.30  
26          0.24  0.11  0.30  0.57  0.45  0.13  0.30  
27          0.24  0.11  0.30  0.57  0.45  0.13  0.30  
28          0.24  0.11  0.30  0.57  0.45  0.13  0.30  
29          0.24  0.11  0.30  0.57  0.45  0.13  0.30  
30          0.24  0.11  0.30  0.57  0.45  0.13  0.30  
31          0.24  0.11  0.30  0.57  0.45  0.13  0.30  
32          0.24  0.11  0.30  0.57  0.45  0.13  0.30  
33          0.24  0.11  0.30  0.57  0.45  0.13  0.30  
34          0.25  0.12  0.32  0.60  0.47  0.14  0.32  
35          0.25  0.12  0.32  0.60  0.47  0.14  0.32  
36          0.25  0.12  0.32  0.60  0.47  0.14  0.32  
37          0.25  0.12  0.32  0.60  0.47  0.14  0.32  
38          0.25  0.12  0.32  0.60  0.47  0.14  0.32  
39          0.25  0.12  0.32  0.60  0.47  0.14  0.32  
40          0.25  0.12  0.32  0.60  0.47  0.14  0.32  
41          0.25  0.12  0.32  0.60  0.47  0.14  0.32  
42          0.25  0.12  0.32  0.60  0.47  0.14  0.32  
43          0.25  0.12  0.32  0.60  0.47  0.14  0.32  
44          0.25  0.12  0.32  0.60  0.47  0.14  0.32  
45          0.25  0.12  0.32  0.60  0.47  0.14  0.32  

[*,*,F2 ]:  K1    K2    K3    K4    K5    K6    K7    :=
1           0.32  0.20  0.20  0.52  0.35  0.12  0.29  
2           0.32  0.20  0.20  0.52  0.35  0.12  0.29  
3           0.32  0.20  0.20  0.52  0.35  0.12  0.29  
4           0.32  0.20  0.20  0.52  0.35  0.12  0.29  
5           0.32  0.20  0.20  0.52  0.35  0.12  0.29  
6           0.32  0.20  0.20  0.52  0.35  0.12  0.29  
7           0.32  0.20  0.20  0.52  0.35  0.12  0.29  
8           0.32  0.20  0.20  0.52  0.35  0.12  0.29  
9           0.32  0.20  0.20  0.52  0.35  0.12  0.29  
10          0.32  0.20  0.20  0.52  0.35  0.12  0.29  
11          0.32  0.20  0.20  0.52  0.35  0.12  0.29  
12          0.32  0.20  0.20  0.52  0.35  0.12  0.29  
13          0.32  0.20  0.20  0.52  0.35  0.12  0.29  
14          0.32  0.20  0.20  0.52  0.35  0.12  0.29  
15          0.32  0.20  0.20  0.52  0.35  0.12  0.29  
16          0.32  0.20  0.20  0.52  0.35  0.12  0.29  
17          0.32  0.20  0.20  0.52  0.35  0.12  0.29  
18          0.32  0.20  0.20  0.52  0.35  0.12  0.29  
19          0.32  0.20  0.20  0.52  0.35  0.12  0.29  
20          0.32  0.20  0.20  0.52  0.35  0.12  0.29  
21          0.32  0.20  0.20  0.52  0.35  0.12  0.29  
22          0.32  0.20  0.20  0.52  0.35  0.12  0.29  
23          0.32  0.20  0.20  0.52  0.35  0.12  0.29  
24          0.32  0.20  0.20  0.52  0.35  0.12  0.29  
25          0.30  0.19  0.19  0.49  0.34  0.11  0.28  
26          0.30  0.19  0.19  0.49  0.34  0.11  0.28  
27          0.30  0.19  0.19  0.49  0.34  0.11  0.28  
28          0.30  0.19  0.19  0.49  0.34  0.11  0.28  
29          0.30  0.19  0.19  0.49  0.34  0.11  0.28  
30          0.30  0.19  0.19  0.49  0.34  0.11  0.28  
31          0.30  0.19  0.19  0.49  0.34  0.11  0.28  
32          0.30  0.19  0.19  0.49  0.34  0.11  0.28  
33          0.30  0.19  0.19  0.49  0.34  0.11  0.28  
34          0.32  0.20  0.20  0.52  0.35  0.12  0.29  
35          0.32  0.20  0.20  0.52  0.35  0.12  0.29  
36          0.32  0.20  0.20  0.52  0.35  0.12  0.29  
37          0.32  0.20  0.20  0.52  0.35  0.12  0.29  
38          0.32  0.20  0.20  0.52  0.35  0.12  0.29  
39          0.32  0.20  0.20  0.52  0.35  0.12  0.29  
40          0.32  0.20  0.20  0.52  0.35  0.12  0.29  
41          0.32  0.20  0.20  0.52  0.35  0.12  0.29  
42          0.32  0.20  0.20  0.52  0.35  0.12  0.29  
43          0.32  0.20  0.20  0.52  0.35  0.12  0.29  
44          0.32  0.20  0.20  0.52  0.35  0.12  0.29  
45          0.32  0.20  0.20  0.52  0.35  0.12  0.29  
; # downloads resource k can do at front f in time t if starting or ending flight

param W: 
	F1        F2        :=
1	727.10    391.52    
2	2908.40   1566.06   
3	2908.40   1566.06   
4	2908.40   1566.06   
5	2908.40   1566.06   
6	2908.40   1566.06   
7	2908.40   1566.06   
8	2908.40   1566.06   
9	2908.40   1566.06   
10	2908.40   1566.06   
11	2908.40   1566.06   
12	2908.40   1566.06   
13	2908.40   1566.06   
14	2908.40   1566.06   
15	2908.40   1566.06   
16	2908.40   1566.06   
17	2908.40   1566.06   
18	2908.40   1566.06   
19	2908.40   1566.06   
20	2908.40   1566.06   
21	2908.40   1566.06   
22	2908.40   1566.06   
23	2908.40   1566.06   
24	2908.40   1566.06   
25	2908.40   1566.06   
26	2908.40   1566.06   
27	2908.40   1566.06   
28	2908.40   1566.06   
29	2908.40   1566.06   
30	2908.40   1566.06   
31	2908.40   1566.06   
32	2908.40   1566.06   
33	2908.40   1566.06   
34	2908.40   1566.06   
35	2908.40   1566.06   
36	2908.40   1566.06   
37	2908.40   1566.06   
38	2908.40   1566.06   
39	2908.40   1566.06   
40	2908.40   1566.06   
41	2908.40   1566.06   
42	2908.40   1566.06   
43	2908.40   1566.06   
44	2908.40   1566.06   
45	727.10    391.52    
; # water needed at front f in time slot t

param M := 100000000; 

param a1:= 10000000;

param a2:= 100;

param a3:= 0.0001;
